65 
300 
10.5 14.4 0 0
11.2 14.1 0 -14
18 15.9 10 -19
18.3 13.3 -10 -80
16.5 9.3 -10 -75
15.4 11 10 -15
14.9 13.2 5 -18
16.3 13.3 -5 -75
16.4 17.8 5 -15
15 17.9 -5 -63
16.1 19.6 10 -18
15.7 20.6 10 -29
13.2 20.1 10 -26
14.3 15.3 5 -25
14 5.1 10 -26
11.4 6.7 15 -16
8.3 5 15 -15
7.9 9.8 -10 -64
11.4 12 5 -27
11.2 17.6 -5 -82
10.1 18.7 -5 -126
11.7 20.3 -10 -106
10.2 22.1 10 -27
9.7 23.8 -10 -122
10.1 26.4 -15 -111
7.4 24 15 -11
8.2 19.9 -15 -87
8.7 17.7 10 -24
8.9 13.6 -10 -87
5.6 11.1 -10 -87
4.9 18.9 10 -15
7.3 18.8 10 -15
